&CONTROL
  calculation='relax',
  prefix='calc',
  pseudo_dir='/storage/coda1/p-amedford6/0/shared/rich_project_chbe-medford/medford-share/data/pseudos_module/espresso/esp_pseudos_old',
  outdir='.',
  tefield=.true.,
  dipfield=.true.,
  tprnfor=.true.,
/
&SYSTEM
  ibrav=0,
  celldm(1)=1.8897261245650618d0,
  nat=50,
  ntyp=3,
  ecutwfc=36.749322474956635d00,
  ecutrho=367.49322474956637d00,
  nbnd=207,
  occupations='smearing',
  smearing='fd',
  degauss=0.0007349864494991327d00,
  nspin=2,
  starting_magnetization(1)=0.0d00,
  starting_magnetization(2)=0.0d00,
  starting_magnetization(3)=0.0d00,
  input_dft='BEEF-vdW',
  edir=3,
  emaxpos=0.992274793950361d00,
  eopreg=0.025d00,
  eamp=0.0d00,
  nosym=.true.,
  noinv=.false.,
  nosym_evc=.false.,
  no_t_rev=.false.,
/
&ELECTRONS
  diagonalization='david',
  conv_thr=7.349864494991327e-08,
  mixing_beta=0.05d00,
  electron_maxstep=750,
/
&IONS
  ion_dynamics='ipi',
/
&CELL
  cell_dynamics='ipi',
/
CELL_PARAMETERS alat
    6.579727202290808d0     0.000000000000000d0     0.000000000000000d0
   -0.000775132442404d0     5.961596420607155d0     0.000000000000000d0
    0.000000000000000d0    -0.000000000000000d0    25.155947251439940d0
ATOMIC_SPECIES
Ti1 47.867d00 Ti.UPF
O1 15.999d00 O.UPF
C1 12.011d00 C.UPF
ATOMIC_POSITIONS {crystal}
Ti1      0.000123603383822d0     0.499897385958536d0     0.238512187198856d0
Ti1      0.500142521004230d0     0.250038178055688d0     0.238522014307695d0
O1       0.000095322930372d0     0.000084774873452d0     0.317452257936818d0
O1       0.500112315057126d0     0.000084209992886d0     0.290342007718641d0
O1       0.698270105622955d0     0.250236102495782d0     0.369213011426276d0
O1       0.301995368073695d0     0.249987007385122d0     0.369214717028816d0
Ti1      0.500166032655828d0     0.500174618505674d0     0.364120445888331d0
Ti1      0.000177005290889d0     0.252497254001643d0     0.370898257444975d0
O1       0.499950193973259d0     0.000537874534248d0     0.452163812250266d0
O1       0.000107052240027d0     0.000027456929373d0     0.420887395773022d0
O1       0.196530865139401d0     0.249023694367735d0     0.503446104842607d0
O1       0.803619994949060d0     0.249387790657673d0     0.503199576695914d0
Ti1      0.999858111200173d0     0.499114433256660d0     0.509600644011995d0
Ti1      0.499940801784969d0     0.250592112202142d0     0.497139032936158d0
O1       0.997758290080095d0     0.998680359344720d0     0.584504715377346d0
O1       0.500432606901960d0     0.998149869436653d0     0.555878992161890d0
O1       0.688649743310303d0     0.250645186657787d0     0.640391052914907d0
O1       0.309125924601157d0     0.250945349825869d0     0.640523809815291d0
Ti1      0.500175440223033d0     0.499183298652160d0     0.625889791848803d0
Ti1      0.003827734500820d0     0.236292007645769d0     0.636232889130604d0
O1       0.500093721748991d0     0.000084921243389d0     0.186906639369252d0
O1       0.000115094524801d0     0.997336690501950d0     0.685202832547714d0
O1       0.198268504441574d0     0.250236248865719d0     0.238667392858710d0
O1       0.801993766892314d0     0.249987153755059d0     0.238669098461250d0
Ti1      0.000123603383822d0     0.999897385958536d0     0.238512187198856d0
Ti1      0.500142521004230d0     0.750038178055688d0     0.238522014307695d0
O1       0.000095322930372d0     0.500084774873452d0     0.317452257936818d0
O1       0.500112315057126d0     0.500084209992886d0     0.290342007718641d0
O1       0.698270105622955d0     0.750236102495782d0     0.369213011426276d0
O1       0.301995368073695d0     0.749987007385122d0     0.369214717028816d0
Ti1      0.500172474052482d0     0.000277937496819d0     0.364063026124355d0
Ti1      0.000177108068316d0     0.746751211482083d0     0.370979889781517d0
O1       0.499931600246591d0     0.499404263380947d0     0.451792598384100d0
O1       0.000113149673806d0     0.499835538741210d0     0.419977704630409d0
O1       0.196104682198678d0     0.749470448138239d0     0.503231345994474d0
O1       0.804072417121091d0     0.749134238439161d0     0.502964091992853d0
Ti1      0.999775151663289d0     0.999175501867616d0     0.499030711203874d0
Ti1      0.499943451160102d0     0.749918870067797d0     0.496892233202944d0
O1       0.999614861445446d0     0.495938470517092d0     0.586055650273376d0
O1       0.500090305420033d0     0.500946454530445d0     0.554462883332375d0
O1       0.688878454480655d0     0.745846661013836d0     0.641187990367889d0
O1       0.308345447085165d0     0.745299711225838d0     0.641298848000904d0
Ti1      0.503658621253818d0     0.997735231068641d0     0.627492803404415d0
Ti1      0.004767299993566d0     0.770868129579311d0     0.638383572081226d0
O1       0.500093721748991d0     0.500084921243389d0     0.186906639369252d0
C1       0.990395347378744d0     0.488137265436193d0     0.702631480051290d0
O1       0.198268504441574d0     0.750236248865719d0     0.238667392858710d0
O1       0.801993766892315d0     0.749987153755059d0     0.238669098461250d0
O1       0.971981860531329d0     0.531025126185371d0     0.749477631179662d0
O1       0.944333156039631d0     0.404626574825543d0     0.797642948531470d0
K_POINTS automatic
4 4 1  0 0 0 
