&CONTROL
  calculation='relax',
  prefix='calc',
  pseudo_dir='/storage/coda1/p-amedford6/0/shared/rich_project_chbe-medford/medford-share/data/pseudos_module/espresso/esp_pseudos_old',
  outdir='.',
  tefield=.true.,
  dipfield=.true.,
  tprnfor=.true.,
/
&SYSTEM
  ibrav=0,
  celldm(1)=1.8897261245650618d0,
  nat=50,
  ntyp=4,
  ecutwfc=36.749322474956635d00,
  ecutrho=367.49322474956637d00,
  nbnd=206,
  occupations='smearing',
  smearing='fd',
  degauss=0.0007349864494991327d00,
  nspin=2,
  starting_magnetization(1)=0.0d00,
  starting_magnetization(2)=0.0d00,
  starting_magnetization(3)=0.0d00,
  starting_magnetization(4)=0.0d00,
  input_dft='BEEF-vdW',
  edir=3,
  emaxpos=0.9890716776957961d00,
  eopreg=0.025d00,
  eamp=0.0d00,
  nosym=.true.,
  noinv=.false.,
  nosym_evc=.false.,
  no_t_rev=.false.,
/
&ELECTRONS
  diagonalization='david',
  conv_thr=7.349864494991327e-08,
  mixing_beta=0.05d00,
  electron_maxstep=750,
/
&IONS
  ion_dynamics='ipi',
/
&CELL
  cell_dynamics='ipi',
/
CELL_PARAMETERS alat
    6.579727202290808d0     0.000000000000000d0     0.000000000000000d0
   -0.000775132442404d0     5.961596420607155d0     0.000000000000000d0
    0.000000000000000d0    -0.000000000000000d0    25.155947251439940d0
ATOMIC_SPECIES
Ti1 47.867d00 Ti.UPF
O1 15.999d00 O.UPF
C1 12.011d00 C.UPF
N1 14.007d00 N.UPF
ATOMIC_POSITIONS {crystal}
Ti1      0.000123603383822d0     0.499897385958536d0     0.238512187198856d0
Ti1      0.500142521004230d0     0.250038178055688d0     0.238522014307695d0
O1       0.000095322930372d0     0.000084774873452d0     0.317452257936818d0
O1       0.500112315057126d0     0.000084209992886d0     0.290342007718641d0
O1       0.698270105622955d0     0.250236102495782d0     0.369213011426276d0
O1       0.301995368073695d0     0.249987007385122d0     0.369214717028816d0
Ti1      0.500166032655828d0     0.500174618505674d0     0.364120445888331d0
Ti1      0.000177005290889d0     0.252497254001643d0     0.370898257444975d0
O1       0.497942731008895d0     0.000262830688136d0     0.450050700791094d0
O1       0.000107052240027d0     0.000027456929373d0     0.420887395773022d0
O1       0.191890157064385d0     0.253218769482925d0     0.502681150963005d0
O1       0.798807861396287d0     0.252668518792162d0     0.501755369153351d0
Ti1      0.010812644063921d0     0.501382934883054d0     0.510761956548717d0
Ti1      0.515213280853927d0     0.250807317802968d0     0.495980355871046d0
O1       0.997082696013538d0     0.001307641918225d0     0.580862138186298d0
O1       0.497697284335242d0     0.999577252980129d0     0.552386118429807d0
O1       0.685433800810409d0     0.246752510684418d0     0.638010285228630d0
O1       0.310122044432453d0     0.246365314882042d0     0.638191943744011d0
Ti1      0.498104604697579d0     0.498375351287894d0     0.624274861415460d0
Ti1      0.001579041586602d0     0.234709833109947d0     0.641226596710214d0
O1       0.500093721748991d0     0.000084921243389d0     0.186906639369252d0
O1       0.997637059000563d0     0.996035805791828d0     0.685010559290151d0
O1       0.198268504441574d0     0.250236248865719d0     0.238667392858710d0
O1       0.801993766892314d0     0.249987153755059d0     0.238669098461250d0
Ti1      0.000123603383822d0     0.999897385958536d0     0.238512187198856d0
Ti1      0.500142521004230d0     0.750038178055688d0     0.238522014307695d0
O1       0.000095322930372d0     0.500084774873452d0     0.317452257936818d0
O1       0.500112315057126d0     0.500084209992886d0     0.290342007718641d0
O1       0.698270105622955d0     0.750236102495782d0     0.369213011426276d0
O1       0.301995368073695d0     0.749987007385122d0     0.369214717028816d0
Ti1      0.500172474052482d0     0.000277937496819d0     0.364063026124355d0
Ti1      0.000177108068316d0     0.746751211482083d0     0.370979889781517d0
O1       0.497731413223919d0     0.500343890184390d0     0.449949649808586d0
O1       0.000113149673806d0     0.499835538741210d0     0.419977704630409d0
O1       0.192008882582525d0     0.748364493340289d0     0.502706456206753d0
O1       0.798889199383927d0     0.748172793928611d0     0.501811324223446d0
Ti1      0.009626614704231d0     0.001357787749201d0     0.507941208921886d0
Ti1      0.515176563159578d0     0.750450018770284d0     0.495983947131749d0
O1       0.999774027870756d0     0.500906039640473d0     0.584542306387232d0
O1       0.497036356357235d0     0.499496930006663d0     0.552479447584214d0
O1       0.685424370875299d0     0.746857466450869d0     0.637967326497155d0
O1       0.310521062162416d0     0.746908538363941d0     0.638301367147689d0
Ti1      0.501266154919264d0     0.998162484484127d0     0.624397697691871d0
Ti1      0.000986778165835d0     0.743693463252326d0     0.641981449332320d0
O1       0.500093721748991d0     0.500084921243389d0     0.186906639369252d0
C1       0.994194326703312d0     0.496099025456011d0     0.695878442722673d0
O1       0.198268504441574d0     0.750236248865719d0     0.238667392858710d0
O1       0.801993766892315d0     0.749987153755059d0     0.238669098461250d0
N1       0.971800240873569d0     0.480450318238198d0     0.746149069386726d0
N1       0.950865489761109d0     0.465777514963713d0     0.791236716022340d0
K_POINTS automatic
4 4 1  0 0 0 
