&CONTROL
  calculation='relax',
  prefix='calc',
  pseudo_dir='/storage/coda1/p-amedford6/0/shared/rich_project_chbe-medford/medford-share/data/pseudos_module/espresso/esp_pseudos_old',
  outdir='.',
  tefield=.true.,
  dipfield=.true.,
  tprnfor=.true.,
/
&SYSTEM
  ibrav=0,
  celldm(1)=1.8897261245650618d0,
  nat=50,
  ntyp=3,
  ecutwfc=36.749322474956635d00,
  ecutrho=367.49322474956637d00,
  nbnd=206,
  occupations='smearing',
  smearing='fd',
  degauss=0.0007349864494991327d00,
  nspin=2,
  starting_magnetization(1)=0.0d00,
  starting_magnetization(2)=0.0d00,
  starting_magnetization(3)=0.0d00,
  input_dft='BEEF-vdW',
  edir=3,
  emaxpos=0.9970984400946292d00,
  eopreg=0.025d00,
  eamp=0.0d00,
  nosym=.true.,
  noinv=.false.,
  nosym_evc=.false.,
  no_t_rev=.false.,
/
&ELECTRONS
  diagonalization='david',
  conv_thr=7.349864494991327e-08,
  mixing_beta=0.05d00,
  electron_maxstep=750,
/
&IONS
  ion_dynamics='ipi',
/
&CELL
  cell_dynamics='ipi',
/
CELL_PARAMETERS alat
    6.579727202290808d0     0.000000000000000d0     0.000000000000000d0
   -0.000775132442404d0     5.961596420607155d0     0.000000000000000d0
    0.000000000000000d0    -0.000000000000000d0    25.155947251439940d0
ATOMIC_SPECIES
Ti1 47.867d00 Ti.UPF
O1 15.999d00 O.UPF
B1 10.81d00 B.UPF
ATOMIC_POSITIONS {crystal}
Ti1      0.000123603383822d0     0.499897385958536d0     0.238512187198856d0
Ti1      0.500142521004230d0     0.250038178055688d0     0.238522014307695d0
O1       0.000095322930372d0     0.000084774873452d0     0.317452257936818d0
O1       0.500112315057126d0     0.000084209992886d0     0.290342007718641d0
O1       0.698270105622955d0     0.250236102495782d0     0.369213011426276d0
O1       0.301995368073695d0     0.249987007385122d0     0.369214717028816d0
Ti1      0.500166032655828d0     0.500174618505674d0     0.364120445888331d0
Ti1      0.000177005290889d0     0.252497254001643d0     0.370898257444975d0
O1       0.500119436420287d0     0.000084836764931d0     0.451694054400346d0
O1       0.000107052240027d0     0.000027456929373d0     0.420887395773022d0
O1       0.196504512043664d0     0.250254479366188d0     0.502210085881606d0
O1       0.803781344633082d0     0.250317905702689d0     0.502196052495419d0
Ti1      0.000088414048128d0     0.500334011801058d0     0.507975723024432d0
Ti1      0.500123141005324d0     0.250194138830310d0     0.496991830929385d0
O1       0.999762786676990d0     0.000240531571649d0     0.582244595418931d0
O1       0.500380093609198d0     0.000364062918195d0     0.555118873230630d0
O1       0.691399778466315d0     0.252425093837556d0     0.639509472121486d0
O1       0.308656363765224d0     0.252321214412782d0     0.639528524213221d0
Ti1      0.500681717389167d0     0.500545441993999d0     0.625659305445338d0
Ti1      0.001956284709984d0     0.233431789372480d0     0.633352025444573d0
O1       0.500093721748991d0     0.000084921243389d0     0.186906639369252d0
O1       0.000393563750608d0     0.001676743147178d0     0.682317389957351d0
O1       0.198268504441574d0     0.250236248865719d0     0.238667392858710d0
O1       0.801993766892314d0     0.249987153755059d0     0.238669098461250d0
Ti1      0.000123603383822d0     0.999897385958536d0     0.238512187198856d0
Ti1      0.500142521004230d0     0.750038178055688d0     0.238522014307695d0
O1       0.000095322930372d0     0.500084774873452d0     0.317452257936818d0
O1       0.500112315057126d0     0.500084209992886d0     0.290342007718641d0
O1       0.698270105622955d0     0.750236102495782d0     0.369213011426276d0
O1       0.301995368073695d0     0.749987007385122d0     0.369214717028816d0
Ti1      0.500172474052482d0     0.000277937496819d0     0.364063026124355d0
Ti1      0.000177108068316d0     0.746751211482083d0     0.370979889781517d0
O1       0.500105569027966d0     0.500217372432139d0     0.451669946954495d0
O1       0.000113149673806d0     0.499835538741210d0     0.419977704630409d0
O1       0.196403505073465d0     0.750117053579579d0     0.502233285509449d0
O1       0.803881097719889d0     0.750001502157033d0     0.502221580904130d0
Ti1      0.000080241385552d0     0.000030803980720d0     0.498304896701093d0
Ti1      0.500125379861090d0     0.749787610142332d0     0.497016669335344d0
O1       0.000438600240293d0     0.499719022449629d0     0.584470178253403d0
O1       0.500270096596706d0     0.500440599630175d0     0.554416049395807d0
O1       0.690989990485140d0     0.748631647864276d0     0.639694984976916d0
O1       0.308904868980625d0     0.748642824286418d0     0.639728960329793d0
Ti1      0.501568368576288d0     0.000810713191993d0     0.626400775212576d0
Ti1      0.002052705041861d0     0.765591605159868d0     0.636966467207532d0
O1       0.500093721748991d0     0.500084921243389d0     0.186906639369252d0
B1       0.992017773999951d0     0.500821808119932d0     0.708010445302994d0
O1       0.198268504441574d0     0.750236248865719d0     0.238667392858710d0
O1       0.801993766892315d0     0.749987153755059d0     0.238669098461250d0
O1       0.970579992586164d0     0.470792548318233d0     0.756321041551920d0
O1       0.942301272933790d0     0.432318598932747d0     0.807290240820006d0
K_POINTS automatic
4 4 1  0 0 0 
