&CONTROL
  calculation='relax',
  prefix='calc',
  pseudo_dir='/storage/coda1/p-amedford6/0/shared/rich_project_chbe-medford/medford-share/data/pseudos_module/espresso/esp_pseudos_old',
  outdir='.',
  tefield=.true.,
  dipfield=.true.,
  tprnfor=.true.,
/
&SYSTEM
  ibrav=0,
  celldm(1)=1.8897261245650618d0,
  nat=48,
  ntyp=3,
  ecutwfc=36.749322474956635d00,
  ecutrho=367.49322474956637d00,
  nbnd=201,
  occupations='smearing',
  smearing='fd',
  degauss=0.0007349864494991327d00,
  nspin=2,
  starting_magnetization(1)=0.0d00,
  starting_magnetization(2)=0.0d00,
  starting_magnetization(3)=0.0d00,
  input_dft='BEEF-vdW',
  edir=3,
  emaxpos=0.9403404378097597d00,
  eopreg=0.025d00,
  eamp=0.0d00,
  nosym=.true.,
  noinv=.false.,
  nosym_evc=.false.,
  no_t_rev=.false.,
/
&ELECTRONS
  diagonalization='david',
  conv_thr=7.349864494991327e-08,
  mixing_beta=0.05d00,
  electron_maxstep=750,
/
&IONS
  ion_dynamics='ipi',
/
&CELL
  cell_dynamics='ipi',
/
CELL_PARAMETERS alat
    6.579727202290808d0     0.000000000000000d0     0.000000000000000d0
   -0.000775132442404d0     5.961596420607155d0     0.000000000000000d0
    0.000000000000000d0    -0.000000000000000d0    25.155947251439940d0
ATOMIC_SPECIES
Ti1 47.867d00 Ti.UPF
O1 15.999d00 O.UPF
C1 12.011d00 C.UPF
ATOMIC_POSITIONS {crystal}
Ti1      0.000123603383822d0     0.499897385958536d0     0.238512187198856d0
Ti1      0.500142521004230d0     0.250038178055688d0     0.238522014307695d0
O1       0.000095322930372d0     0.000084774873452d0     0.317452257936818d0
O1       0.500112315057126d0     0.000084209992886d0     0.290342007718641d0
O1       0.698270105622955d0     0.250236102495782d0     0.369213011426276d0
O1       0.301995368073695d0     0.249987007385122d0     0.369214717028816d0
Ti1      0.500166032655828d0     0.500174618505674d0     0.364120445888331d0
Ti1      0.000177005290889d0     0.252497254001643d0     0.370898257444975d0
O1       0.500303575944238d0     0.000049772169187d0     0.450746278345949d0
O1       0.000107052240027d0     0.000027456929373d0     0.420887395773022d0
O1       0.199019287369414d0     0.251913760506218d0     0.502198327024001d0
O1       0.802014279184374d0     0.251678966980542d0     0.502291127097623d0
Ti1      0.999680399280155d0     0.499608454046692d0     0.510714983572661d0
Ti1      0.499352517458293d0     0.250307779296875d0     0.496573185316812d0
O1       0.001017816169570d0     0.996947702692860d0     0.580071173410785d0
O1       0.499913703199924d0     0.000280868544000d0     0.554136496865342d0
O1       0.688036085387640d0     0.250952067236460d0     0.639794560015235d0
O1       0.312550677220309d0     0.251277158975690d0     0.639752162519746d0
Ti1      0.500233179659104d0     0.500421744513292d0     0.625324986607410d0
Ti1      0.998954298340251d0     0.251011870587811d0     0.641620678931040d0
O1       0.500093721748991d0     0.000084921243389d0     0.186906639369252d0
O1       0.000537898599028d0     0.998231297192617d0     0.685388120799412d0
O1       0.198268504441574d0     0.250236248865719d0     0.238667392858710d0
O1       0.801993766892314d0     0.249987153755059d0     0.238669098461250d0
Ti1      0.000123603383822d0     0.999897385958536d0     0.238512187198856d0
Ti1      0.500142521004230d0     0.750038178055688d0     0.238522014307695d0
O1       0.000095322930372d0     0.500084774873452d0     0.317452257936818d0
O1       0.500112315057126d0     0.500084209992886d0     0.290342007718641d0
O1       0.698270105622955d0     0.750236102495782d0     0.369213011426276d0
O1       0.301995368073695d0     0.749987007385122d0     0.369214717028816d0
Ti1      0.500172474052482d0     0.000277937496819d0     0.364063026124355d0
Ti1      0.000177108068316d0     0.746751211482083d0     0.370979889781517d0
O1       0.500379393824712d0     0.500018583190115d0     0.450610383485774d0
O1       0.000113149673806d0     0.499835538741210d0     0.419977704630409d0
O1       0.199029264600396d0     0.747558060826204d0     0.502228125705527d0
O1       0.801973130653251d0     0.747716582178694d0     0.502324993073146d0
Ti1      0.999662872109768d0     0.999794126631294d0     0.507343723385957d0
Ti1      0.499370240894467d0     0.749502051882870d0     0.496572990634236d0
O1       0.000261707510562d0     0.496685835818820d0     0.583607401541453d0
O1       0.500293969108046d0     0.500307774696226d0     0.553785973092539d0
O1       0.688145352423854d0     0.749875606709285d0     0.639804793406010d0
O1       0.312541565204163d0     0.749532215181157d0     0.639764452463856d0
Ti1      0.498734328104804d0     0.000754739510972d0     0.625821964771906d0
Ti1      0.998629925691990d0     0.766692631495360d0     0.641328567574886d0
O1       0.500093721748991d0     0.500084921243389d0     0.186906639369252d0
C1       0.000598125740276d0     0.496638016002310d0     0.693774236250267d0
O1       0.198268504441574d0     0.750236248865719d0     0.238667392858710d0
O1       0.801993766892315d0     0.749987153755059d0     0.238669098461250d0
K_POINTS automatic
4 4 1  0 0 0 
