&CONTROL
  calculation='relax',
  prefix='calc',
  pseudo_dir='/storage/coda1/p-amedford6/0/shared/rich_project_chbe-medford/medford-share/data/pseudos_module/espresso/esp_pseudos_old',
  outdir='.',
  tefield=.true.,
  dipfield=.true.,
  tprnfor=.true.,
/
&SYSTEM
  ibrav=0,
  celldm(1)=1.8897261245650618d0,
  nat=50,
  ntyp=3,
  ecutwfc=36.749322474956635d00,
  ecutrho=367.49322474956637d00,
  nbnd=206,
  occupations='smearing',
  smearing='fd',
  degauss=0.0007349864494991327d00,
  nspin=2,
  starting_magnetization(1)=0.0d00,
  starting_magnetization(2)=0.0d00,
  starting_magnetization(3)=0.0d00,
  input_dft='BEEF-vdW',
  edir=3,
  emaxpos=0.9942336016971149d00,
  eopreg=0.025d00,
  eamp=0.0d00,
  nosym=.true.,
  noinv=.false.,
  nosym_evc=.false.,
  no_t_rev=.false.,
/
&ELECTRONS
  diagonalization='david',
  conv_thr=7.349864494991327e-08,
  mixing_beta=0.05d00,
  electron_maxstep=750,
/
&IONS
  ion_dynamics='ipi',
/
&CELL
  cell_dynamics='ipi',
/
CELL_PARAMETERS alat
    6.579727202290808d0     0.000000000000000d0     0.000000000000000d0
   -0.000775132442404d0     5.961596420607155d0     0.000000000000000d0
    0.000000000000000d0    -0.000000000000000d0    25.155947251439940d0
ATOMIC_SPECIES
Ti1 47.867d00 Ti.UPF
O1 15.999d00 O.UPF
B1 10.81d00 B.UPF
ATOMIC_POSITIONS {crystal}
Ti1      0.000123603383822d0     0.499897385958536d0     0.238512187198856d0
Ti1      0.500142521004230d0     0.250038178055688d0     0.238522014307695d0
O1       0.000095322930372d0     0.000084774873452d0     0.317452257936818d0
O1       0.500112315057126d0     0.000084209992886d0     0.290342007718641d0
O1       0.698270105622955d0     0.250236102495782d0     0.369213011426276d0
O1       0.301995368073695d0     0.249987007385122d0     0.369214717028816d0
Ti1      0.500166032655828d0     0.500174618505674d0     0.364120445888331d0
Ti1      0.000177005290889d0     0.252497254001643d0     0.370898257444975d0
O1       0.500137619264373d0     0.000279248131573d0     0.451437253748742d0
O1       0.000107052240027d0     0.000027456929373d0     0.420887395773022d0
O1       0.197675555670404d0     0.250132584250855d0     0.501657134778319d0
O1       0.802542151909979d0     0.250108591005343d0     0.501665898436483d0
Ti1      0.000112793797237d0     0.500086208223021d0     0.507126330131928d0
Ti1      0.500110556070527d0     0.250139846235405d0     0.496911813767853d0
O1       0.000082467435323d0     0.999336420701616d0     0.580289989574975d0
O1       0.500045844957376d0     0.000973641000550d0     0.555953258799760d0
O1       0.691438346238144d0     0.255330950243149d0     0.641318422828752d0
O1       0.308724863301641d0     0.255335821893399d0     0.641321510718821d0
Ti1      0.500110827925107d0     0.501465549933529d0     0.625570639075545d0
Ti1      0.000050600754562d0     0.238788499781808d0     0.634716782980912d0
O1       0.500093721748991d0     0.000084921243389d0     0.186906639369252d0
O1       0.000118593768074d0     0.999954938988924d0     0.682225172509091d0
O1       0.198268504441574d0     0.250236248865719d0     0.238667392858710d0
O1       0.801993766892314d0     0.249987153755059d0     0.238669098461250d0
Ti1      0.000123603383822d0     0.999897385958536d0     0.238512187198856d0
Ti1      0.500142521004230d0     0.750038178055688d0     0.238522014307695d0
O1       0.000095322930372d0     0.500084774873452d0     0.317452257936818d0
O1       0.500112315057126d0     0.500084209992886d0     0.290342007718641d0
O1       0.698270105622955d0     0.750236102495782d0     0.369213011426276d0
O1       0.301995368073695d0     0.749987007385122d0     0.369214717028816d0
Ti1      0.500172474052482d0     0.000277937496819d0     0.364063026124355d0
Ti1      0.000177108068316d0     0.746751211482083d0     0.370979889781517d0
O1       0.500131621243929d0     0.499889648371334d0     0.451059667237711d0
O1       0.000113149673806d0     0.499835538741210d0     0.419977704630409d0
O1       0.197747152741812d0     0.749667778771927d0     0.501564841195899d0
O1       0.802472541556350d0     0.749643858019674d0     0.501575226806042d0
Ti1      0.000105544162503d0     0.999949944281632d0     0.500146175126813d0
Ti1      0.500109597488837d0     0.749097512131602d0     0.496574215611641d0
O1       0.000122565785434d0     0.500102628069196d0     0.582310230256827d0
O1       0.500093688007156d0     0.500887352019338d0     0.554039582467575d0
O1       0.691487896890224d0     0.746815922314209d0     0.641322631823735d0
O1       0.308670116248104d0     0.746774118559043d0     0.641332251800684d0
Ti1      0.500013954268419d0     0.001039110729433d0     0.627317143140703d0
Ti1      0.000065239088655d0     0.765006379873665d0     0.635110680341636d0
O1       0.500093721748991d0     0.500084921243389d0     0.186906639369252d0
B1       0.999982298177635d0     0.496356956692837d0     0.710130892265416d0
O1       0.198268504441574d0     0.750236248865719d0     0.238667392858710d0
O1       0.801993766892315d0     0.749987153755059d0     0.238669098461250d0
O1       0.965013967430367d0     0.466741343274527d0     0.757833329705187d0
O1       0.946469589988106d0     0.436425720512122d0     0.801560564024977d0
K_POINTS automatic
4 4 1  0 0 0 
